NAME : portcgen-18-9
COMMENT : portcgen N=18, seed=9
TYPE : TSP
DIMENSION : 18
EDGE_WEIGHT_TYPE : EUC_2D
NODE_COORD_SECTION
1 -7313 282351
2 373360 145917
3 -268825 189507
4 71535 -88895
5 -46829 -134699
6 85148 -54556
7 -192759 161411
8 -134681 -44277
9 169763 6439
10 -134053 97967
11 52330 235567
12 -65307 343018
13 343684 -94932
14 -42735 30550
15 543059 25245
16 -262395 224447
17 -110232 622765
18 -118339 6319
